unsat
(define-fun f ((x0 (BitVec 64))) (BitVec 64) (bvadd x0 #b0000000000000000000000000000000000000000000000000000000000001010))
(define-fun f ((x0 (BitVec 64))) (BitVec 64) (bvadd x0 #b0000000000000000000000000000000000000000000000000000000000001010))
int-arith6.sl running time : 0 m .115997016 s
times : .115997016
